100
100
760 2
251 14
486 15
652 18
810 21
938 25
911 14
675 20
680 3
439 7
316 13
185 11
140 14
164 12
101 15
741 17
485 7
262 10
112 19
178 7
665 4
258 17
177 21
684 21
286 6
462 2
518 9
696 3
402 5
24 25
150 15
985 1
483 4
116 10
156 10
355 10
722 16
230 7
600 22
859 19
889 21
294 8
596 12
651 12
922 23
616 17
529 3
459 12
51 18
9 19
155 11
986 10
889 11
76 20
863 17
474 14
367 19
641 4
343 8
569 15
294 14
207 22
109 15
385 19
535 21
206 9
963 8
795 10
663 22
870 20
782 20
572 12
360 18
347 4
853 2
828 20
719 15
314 5
930 16
382 19
459 20
310 6
49 3
152 22
188 24
107 25
780 17
92 11
876 18
855 3
708 15
3 20
532 16
216 9
404 24
44 10
272 2
834 1
359 4
85 3
